%%% static parameters %%%
timespan = 1;
Fact = [1];
Distr1 = [15];
Distr2 = [20];
Clients_N = [100];
Demand_W = [15];
Lt0 = [4];
Lt1 = [4];
SS_ = [0.85];
DS_D = [20];
K = [200];
MA = [500];
%%% dynamic parameters %%%
lost_ratio_sales_ret_th = 0.004453281897408584;
lost_ratio_sales_ret_w = 66;
lost_ratio_sales_dis_th = 0.007683705491185887;
lost_ratio_sales_dis_w = 68;
lost_ratio_sales_fac_th = 0.0024044133888821095;
lost_ratio_sales_fac_w = 79;
stock_customer_MA_mean_relative_th = 0.8030474052920307;
stock_customer_MA_mean_relative_w = 79;
stock_distributor_MA_mean_relative_th = 0.03745622149692418;
stock_distributor_MA_mean_relative_w = 61;
stock_retailer_MA_mean_relative_th = 0.9582599398938876;
stock_retailer_MA_mean_relative_w = 35;
stock_factory_MA_mean_relative_th = 0.23546546135637014;
stock_factory_MA_mean_relative_w = 57;
